\* Problem: Unknown *\

Maximize
 obj: + 7900000 r484_z1_d7501 + 100000 r485_z1_d19923
 + 100000 r484_z1_d20017 + 300000 r484_volGoal + 100000 r485_volGoal
 - 10000000 r484_s

Subject To
 r_0: + r484_s <= 0.417523623919769
 r_1: - r484_s + r484_volGoal + r484_z1_d20017 + r484_z1_d7501
 - r485_z1_r484 <= -0.417523623919769
 r_2: + r485_volGoal + r485_z1_d19923 + r485_z1_r484 <= 10178.2292758192
 r_3: + r484_z1_d7501 <= 0.294624
 r_4: + r485_z1_d19923 = 0
 r_5: + r484_z1_d20017 = 0
 r_6: + r484_z1_d7501 <= 428.4
 r_7: + r485_z1_r484 <= 2282
 r_8: + r484_volGoal = 0
 r_9: + r485_volGoal = 0

End
